n = 23;
lu = [|-358, 64
      |-495, 99
      |247, 338
      |-263, 204
      |-136, 18
      |-501, 381
      |-77, 402
      |-479, -313
      |-354, 491
      |-489, 333
      |354, 520
      |-412, 206
      |-457, -108
      |-177, 226
      |-87, 213
      |47, 226
      |-354, 114
      |-166, 441
      |387, 460
      |-194, -157
      |-164, 133
      |-295, -129
      |-361, -328|];
